1 0 99
2 100 199
3 200 299
4 300 399
5 400 499
6 500 599
7 600 699
8 700 799
9 800 899
10 900 999
11 1000 1099
12 1100 1199
13 1200 1299
14 1300 1399
15 1400 1499
16 1500 1599
17 1600 1699
18 1700 1799
19 1800 1899
20 1900 1999
21 2000 2099
22 2100 2199
23 2200 2299
24 2300 2399
25 2400 2499
26 2500 2599
27 2600 2699
28 2700 2799
29 2800 2899
30 2900 2999